8,1,1,5,10,5,2,5,5,4,3,6,4,10,9,10,7,10,6,10;4,1,2,3,5,2,7,2,3,5,9,9,1,9,6,8,10,10,8,10;1,1,4,2,9,2,10,6,6,4,7,5,5,5,2,7,3,8,8,9;1,2,9,3,8,5,5,3,3,4,4,7,7,6,2,6,6,7,10,9;2,1,10,2,1,4,7,3,3,3,9,5,4,6,6,5,8,7,5,7;9,1,8,2,1,3,6,2,4,4,7,4,10,8,2,8,5,10,3,10;5,1,7,1,10,3,9,4,3,2,8,6,4,8,6,6,1,10,2,10;2,2,6,1,4,3,10,4,1,6,9,6,7,7,8,8,5,8,3,9;8,3,2,4,6,3,4,5,10,7,9,7,1,7,7,8,5,6,3,7;10,1,8,4,3,1,9,8,4,9,1,8,7,9,5,9,2,9,6,9;
